NPROCS=0
This instance is clustered!
Gurobi Optimizer version 9.0.0 build v9.0.0rc2 (linux64)
Optimize a model with 30 rows, 226 columns and 450 nonzeros
Model fingerprint: 0x86ad234b
Variable types: 1 continuous, 225 integer (225 binary)
Coefficient statistics:
  Matrix range     [1e+00, 1e+00]
  Objective range  [1e+00, 2e+02]
  Bounds range     [1e+00, 1e+00]
  RHS range        [1e+00, 1e+00]
 done with super cut 0
Presolve removed 2 rows and 42 columns
Presolve time: 0.00s
Presolved: 28 rows, 184 columns, 366 nonzeros
Variable types: 1 continuous, 183 integer (183 binary)

Root relaxation: objective 2.931366e+02, 34 iterations, 0.00 seconds

    Nodes    |    Current Node    |     Objective Bounds      |     Work
 Expl Unexpl |  Obj  Depth IntInf | Incumbent    BestBd   Gap | It/Node Time

     0     0  297.23268    0    8          -  297.23268      -     -    0s
     0     0  364.35821    0   16          -  364.35821      -     -    0s
 done with super cut 1
 done with super cut 2
H    0     0                     556.6622163  364.35821  34.5%     -    0s
 done with super cut 3
     0     0  370.76603    0   20  556.66222  370.76603  33.4%     -    0s
     0     0  371.28790    0   33  556.66222  371.28790  33.3%     -    0s
 done with super cut 4
 done with super cut 5
 done with super cut 6
 done with super cut 7
 done with super cut 8
 done with super cut 9
H    0     0                     493.5862067  374.91435  24.0%     -    1s
     0     2  374.91435    0   34  493.58621  374.91435  24.0%     -    1s
 done with super cut 10
H   39    42                     478.8023035  381.79876  20.3%   7.7    1s
* 5469     1              11     477.2729190  474.21371  0.64%   7.9    1s

Cutting planes:
  Gomory: 1
  Lazy constraints: 309

Explored 5564 nodes (43526 simplex iterations) in 1.95 seconds
Thread count was 12 (of 12 available processors)

Solution count 4: 477.273 478.802 493.586 556.662 

Optimal solution found (tolerance 1.00e-04)
Best objective 4.772729190475e+02, best bound 4.772729190475e+02, gap 0.0000%

User-callback calls 11774, time in user-callback 1.41 sec
/projects/academic/josewalt/caigao/RRARP_BD/BendersDecomp/ret/model_outs/n_13_h_8_algo_4.out
 =====>>>>> Solution is written to file in <../ret/model_outs> !!!
===>> All Done!
